============================[ Problem Statistics ]=============================
|                                                                             |
|  Number of variables:           375                                         |
|  Number of clauses:             921                                         |
|  Parse time:                   0.00 s                                       |
|  Eliminated clauses:           0.01 Mb                                      |
|  Simplification time:          0.00 s                                       |
|                                                                             |
===============================================================================
Solved by simplification
restarts              : 0
conflicts             : 0              (0 /sec)
decisions             : 0              ( nan % random) (0 /sec)
propagations          : 109            (32901 /sec)
conflict literals     : 0              ( nan % deleted)
Memory used           : 0.30 MB
CPU time              : 0.003313 s

UNSATISFIABLE
